program_setup_time=600;
sequence_setup_time=300;
max_colors_per_job=2;
min_cycles_per_job=2;
max_cycles_per_job=30;
max_jobs=25;
num_colors=3;
num_programs=1;
num_moulds=15;
num_demands=24;
num_lines=3;
available_moulds=[8,8,6,4,8,4,4,4,4,4,8,12,8,6,8];
slots_per_program=[7];
cycle_time_for_program=[3060];
program_for_mould=[1,1,1,1,1,1,1,1,1,1,1,1,1,1,1];
line_for_mould=[1,1,2,2,1,1,1,2,2,3,1,1,2,2,1];
color_compatibility=array2d(colors, colors, [1,0,0,0,1,0,0,0,1]);
demand_qty=[33,2,5,5,3,1,5,5,6,2,2,113,1,6,4,4,1,10,7,3,5,3,7,3];
demand_duedate=[-89479,-89479,-50436,-50436,-50436,-50436,-50436,-50436,-50436,-50436,-50436,-50436,-11393,27649,27649,27649,27649,27649,27649,27649,144778,144778,144778,144778];
demand_color=[1,1,2,3,3,3,3,3,3,3,2,1,3,3,3,2,3,3,3,3,3,3,3,3];
demand_mould=[1,2,3,1,4,5,6,7,8,9,10,3,8,1,5,9,11,12,13,14,9,11,12,15];
reference_makespan = 125400;
reference_tardiness = 1641108;
reference_waste = 44;